
n_res = 4;
rcap = [23, 24, 109, 76];
rtype = [1, 1, 2, 2];
n_tasks = 50;
modes =  [{1, 2, 3}, {4, 5, 6}, {7, 8, 9}, {10, 11, 12}, {13, 14, 15}, {16, 17, 18}, {19, 20, 21}, {22, 23, 24}, {25, 26, 27}, {28, 29, 30}, {31, 32, 33}, {34, 35, 36}, {37, 38, 39}, {40, 41, 42}, {43, 44, 45}, {46, 47, 48}, {49, 50, 51}, {52, 53, 54}, {55, 56, 57}, {58, 59, 60}, {61, 62, 63}, {64, 65, 66}, {67, 68, 69}, {70, 71, 72}, {73, 74, 75}, {76, 77, 78}, {79, 80, 81}, {82, 83, 84}, {85, 86, 87}, {88, 89, 90}, {91, 92, 93}, {94, 95, 96}, {97, 98, 99}, {100, 101, 102}, {103, 104, 105}, {106, 107, 108}, {109, 110, 111}, {112, 113, 114}, {115, 116, 117}, {118, 119, 120}, {121, 122, 123}, {124, 125, 126}, {127, 128, 129}, {130, 131, 132}, {133, 134, 135}, {136, 137, 138}, {139, 140, 141}, {142, 143, 144}, {145, 146, 147}, {148, 149, 150}];
succ =  [{14, 5, 2}, {12, 10, 8, 7}, {18, 14, 13, 11, 9}, {18, 14, 13, 11}, {18, 11, 10}, {14, 13, 11}, {19, 18, 17, 16}, {21, 18, 17, 15}, {19, 12}, {16, 13}, {12}, {22, 17, 16}, {25, 19, 17}, {22, 21, 17}, {22, 16}, {35, 25, 24, 23, 20}, {35, 24, 23, 20}, {30, 29, 27, 24, 23, 22}, {27, 26, 23, 21}, {30, 29, 28, 27, 26}, {36, 35, 34, 32, 29}, {31, 25}, {42, 39, 33, 32, 31}, {42, 39, 36, 33, 31}, {26}, {44, 42, 39, 34, 33}, {42, 39, 33, 32}, {48, 44, 40, 39, 36, 34}, {50, 44, 42, 40, 39, 38, 37}, {31}, {48, 44, 40, 37, 34}, {50, 48, 44, 40, 38, 37}, {50, 48, 40, 38, 37}, {50, 43, 41, 38}, {48, 47, 46, 44, 43}, {37}, {47, 43, 41}, {49, 47, 46, 45}, {43, 41}, {47, 46, 45}, {46, 45}, {48, 45}, {45}, {45}, {}, {}, {}, {}, {}, {}];
n_opt = 150;
dur = [5, 5, 8, 3, 5, 10, 1, 3, 5, 3, 3, 7, 5, 7, 7, 2, 3, 3, 2, 2, 9, 1, 4, 10, 1, 4, 6, 1, 3, 7, 2, 9, 10, 5, 10, 10, 3, 7, 9, 2, 3, 4, 4, 5, 6, 2, 5, 6, 4, 6, 9, 6, 9, 9, 2, 7, 7, 1, 2, 2, 1, 3, 9, 2, 7, 8, 6, 9, 10, 2, 5, 5, 2, 3, 5, 1, 8, 10, 1, 5, 6, 2, 8, 10, 5, 5, 7, 2, 8, 9, 4, 5, 6, 1, 4, 5, 6, 7, 10, 5, 5, 10, 5, 8, 10, 3, 4, 10, 1, 1, 7, 3, 6, 7, 5, 9, 9, 5, 6, 9, 1, 4, 9, 2, 2, 9, 4, 7, 9, 3, 5, 10, 4, 6, 10, 5, 6, 9, 5, 6, 8, 3, 7, 9, 2, 5, 10, 1, 5, 9];
rreq = [|6, 0, 0, 8, 3, 0, 6, 0, 0, 0, 7, 0, 9, 0, 4, 0, 4, 0, 0, 5, 2, 9, 7, 6, 0, 5, 2, 0, 0, 2, 0, 8, 8, 0, 0, 9, 0, 0, 5, 5, 5, 4, 2, 0, 2, 9, 9, 7, 0, 3, 0, 0, 8, 0, 4, 0, 3, 0, 9, 9, 9, 8, 0, 0, 0, 0, 0, 0, 0, 0, 3, 0, 4, 0, 0, 6, 0, 0, 0, 0, 1, 5, 4, 0, 0, 0, 0, 0, 7, 5, 6, 4, 4, 7, 0, 0, 8, 7, 7, 0, 2, 1, 0, 6, 5, 9, 6, 0, 4, 4, 0, 6, 5, 0, 0, 0, 0, 0, 0, 2, 0, 2, 0, 0, 5, 4, 0, 4, 0, 5, 5, 0, 9, 5, 3, 9, 7, 7, 9, 0, 0, 0, 5, 0, 8, 0, 0, 0, 7, 6
 |0, 4, 3, 0, 0, 8, 0, 7, 6, 8, 0, 4, 0, 2, 0, 8, 0, 4, 10, 0, 0, 0, 0, 0, 7, 0, 0, 8, 6, 0, 4, 0, 0, 8, 6, 0, 4, 3, 0, 0, 0, 0, 0, 5, 0, 0, 0, 0, 2, 0, 2, 8, 0, 8, 0, 2, 0, 6, 0, 0, 0, 0, 2, 5, 4, 3, 10, 8, 8, 9, 0, 6, 0, 5, 5, 0, 5, 4, 8, 7, 0, 0, 0, 1, 10, 10, 10, 4, 0, 0, 0, 0, 0, 0, 7, 6, 0, 0, 0, 2, 0, 0, 9, 0, 0, 0, 0, 5, 0, 0, 3, 0, 0, 4, 4, 4, 2, 4, 2, 0, 5, 0, 4, 10, 0, 0, 6, 0, 4, 0, 0, 5, 0, 0, 0, 0, 0, 0, 0, 5, 5, 9, 0, 9, 0, 5, 3, 7, 0, 0
 |5, 0, 0, 9, 0, 0, 6, 4, 4, 0, 6, 0, 9, 0, 0, 8, 7, 0, 0, 0, 0, 0, 5, 0, 7, 6, 6, 0, 0, 0, 3, 2, 1, 9, 0, 0, 3, 3, 3, 6, 5, 5, 0, 0, 0, 0, 0, 0, 9, 0, 0, 6, 5, 0, 0, 8, 0, 0, 2, 0, 0, 9, 9, 10, 0, 0, 8, 0, 0, 5, 4, 3, 6, 5, 4, 0, 6, 0, 0, 0, 0, 7, 7, 6, 0, 3, 0, 8, 7, 5, 8, 0, 0, 0, 0, 0, 0, 6, 0, 10, 9, 8, 0, 0, 0, 0, 7, 3, 3, 0, 1, 0, 0, 0, 0, 0, 3, 7, 3, 2, 9, 7, 6, 7, 6, 0, 3, 0, 2, 0, 0, 0, 2, 2, 0, 0, 1, 0, 6, 0, 0, 6, 5, 4, 0, 0, 1, 7, 6, 6
 |0, 8, 8, 0, 6, 2, 0, 0, 0, 5, 0, 4, 0, 5, 1, 0, 0, 2, 2, 2, 2, 8, 0, 5, 0, 0, 0, 6, 4, 4, 0, 0, 0, 0, 4, 4, 0, 0, 0, 0, 0, 0, 4, 4, 3, 10, 9, 10, 0, 5, 1, 0, 0, 4, 7, 0, 1, 8, 0, 6, 3, 0, 0, 0, 1, 1, 0, 3, 2, 0, 0, 0, 0, 0, 0, 9, 0, 6, 5, 4, 2, 0, 0, 0, 9, 0, 6, 0, 0, 0, 0, 5, 3, 8, 6, 3, 4, 0, 2, 0, 0, 0, 7, 6, 5, 5, 0, 0, 0, 4, 0, 2, 2, 1, 9, 4, 0, 0, 0, 0, 0, 0, 0, 0, 0, 2, 0, 6, 0, 8, 6, 6, 0, 0, 1, 8, 0, 8, 0, 5, 4, 0, 0, 0, 9, 6, 0, 0, 0, 0|];